succeed=True
[CUDA] cuda: usage: 5.44 GB
0 :  {link #0 : 1}, {link #1 : 2}, {link #2 : 3},
1 :  {link #0 : 2}, {link #1 : 3}, {link #2 : 0},
2 :  {link #0 : 3}, {link #1 : 0}, {link #2 : 1},
3 :  {link #0 : 0}, {link #1 : 1}, {link #2 : 2},
0 :  {link #0 : 1}, {link #1 : 2}, {link #2 : 3},
1 :  {link #0 : 2}, {link #1 : 3}, {link #2 : 0},
2 :  {link #0 : 3}, {link #1 : 0}, {link #2 : 1},
3 :  {link #0 : 0}, {link #1 : 1}, {link #2 : 2},
0 :  {link #0 : 1}, {link #1 : 2}, {link #2 : 3},
1 :  {link #0 : 2}, {link #1 : 3}, {link #2 : 0},
2 :  {link #0 : 3}, {link #1 : 0}, {link #2 : 1},
3 :  {link #0 : 0}, {link #1 : 1}, {link #2 : 2},
0 : local 80, cpu 0 {link #0 : g1 0}, {link #1 : g2 0}, {link #2 : g3 0},
1 : local 80, cpu 0 {link #0 : g2 0}, {link #1 : g3 0}, {link #2 : g0 0},
2 : local 80, cpu 0 {link #0 : g3 0}, {link #1 : g0 0}, {link #2 : g1 0},
3 : local 80, cpu 0 {link #0 : g0 0}, {link #1 : g1 0}, {link #2 : g2 0},
0 : local 80, cpu 0 {link #0 : g1 0}, {link #1 : g2 0}, {link #2 : g3 0},
1 : local 80, cpu 0 {link #0 : g2 0}, {link #1 : g3 0}, {link #2 : g0 0},
2 : local 80, cpu 0 {link #0 : g3 0}, {link #1 : g0 0}, {link #2 : g1 0},
3 : local 80, cpu 0 {link #0 : g0 0}, {link #1 : g1 0}, {link #2 : g2 0},
0 : local 80, cpu 0 {link #0 : g1 0}, {link #1 : g2 0}, {link #2 : g3 0},
1 : local 80, cpu 0 {link #0 : g2 0}, {link #1 : g3 0}, {link #2 : g0 0},
2 : local 80, cpu 0 {link #0 : g3 0}, {link #1 : g0 0}, {link #2 : g1 0},
3 : local 80, cpu 0 {link #0 : g0 0}, {link #1 : g1 0}, {link #2 : g2 0},
0 :  {link #0 : 1}, {link #1 : 2}, {link #2 : 3},
1 :  {link #0 : 2}, {link #1 : 3}, {link #2 : 0},
2 :  {link #0 : 3}, {link #1 : 0}, {link #2 : 1},
3 :  {link #0 : 0}, {link #1 : 1}, {link #2 : 2},
0 : local 80, cpu 0 {link #0 : g1 0}, {link #1 : g2 0}, {link #2 : g3 0},
1 : local 80, cpu 0 {link #0 : g2 0}, {link #1 : g3 0}, {link #2 : g0 0},
2 : local 80, cpu 0 {link #0 : g3 0}, {link #1 : g0 0}, {link #2 : g1 0},
3 : local 80, cpu 0 {link #0 : g0 0}, {link #1 : g1 0}, {link #2 : g2 0},
Set parameter WLSAccessID
Set parameter WLSSecret
Set parameter LicenseID
Set parameter TimeLimit to value 200
Set parameter MIPGap to value 0.05
Set parameter LogFile to value "cppsolver.log"
Set parameter Threads to value 40
Academic license - for non-commercial use only - registered to xiaoniu.sxn@sjtu.edu.cn
Gurobi Optimizer version 9.5.1 build v9.5.1rc2 (linux64)
Thread count: 40 physical cores, 80 logical processors, using up to 40 threads
Academic license - for non-commercial use only - registered to xiaoniu.sxn@sjtu.edu.cn
Optimize a model with 24568 rows, 8029 columns and 66104 nonzeros
Model fingerprint: 0x83b879c8
Variable types: 5 continuous, 8024 integer (8024 binary)
Coefficient statistics:
  Matrix range     [5e-09, 2e+02]
  Objective range  [1e+00, 1e+00]
  Bounds range     [1e+00, 1e+00]
  RHS range        [1e+00, 2e+02]
Found heuristic solution: objective 7206.0686426
Presolve removed 17123 rows and 136 columns
Presolve time: 0.07s
Presolved: 7445 rows, 7893 columns, 30069 nonzeros
Found heuristic solution: objective 7206.0686310
Variable types: 5 continuous, 7888 integer (7888 binary)

Root relaxation: objective 3.292590e+02, 5820 iterations, 0.33 seconds (0.31 work units)

    Nodes    |    Current Node    |     Objective Bounds      |     Work
 Expl Unexpl |  Obj  Depth IntInf | Incumbent    BestBd   Gap | It/Node Time

     0     0  329.25900    0   55 7206.06863  329.25900  95.4%     -    0s
H    0     0                     331.5193131  329.25900  0.68%     -    1s

Explored 1 nodes (11936 simplex iterations) in 1.17 seconds (0.91 work units)
Thread count was 40 (of 80 available processors)

Solution count 3: 331.519 7206.07 7206.07 

Optimal solution found (tolerance 5.00e-02)
Best objective 3.315193131455e+02, best bound 3.292589955488e+02, gap 0.6818%
coll_cache:optimal_local_rate=0.898716,0.898169,0.897858,0.898371,
coll_cache:optimal_remote_rate=0.0846046,0.0851511,0.0854623,0.0849496,
coll_cache:optimal_cpu_rate=0.0166798,0.0166798,0.0166798,0.0166798,
z=331.519
test_result:init:feat_nbytes=56862697472
test_result:init:cache_nbytes=4605878272
test_result:init:feat_nbytes=56862697472
test_result:init:cache_nbytes=4605878272
test_result:init:feat_nbytes=56862697472
test_result:init:cache_nbytes=4605878272
test_result:init:feat_nbytes=56862697472
test_result:init:cache_nbytes=4605878272
    [Step(average) Profiler Level 1 E3 S147]
        L1  sample           0.004297 | send           0.000000
        L1  recv             0.000000 | copy           0.004857 | convert time 0.000000 | train  0.008789
        L1  feature nbytes  520.42 MB | label nbytes 0.00 Bytes
        L1  id nbytes      0.00 Bytes | graph nbytes 0.00 Bytes
        L1  miss nbytes    0.00 Bytes | remote nbytes 0.00 Bytes
        L1  num nodes               0 | num samples           0
        L1  seq duration     0.000000 | refresh duration   0.000000
    [Step(average) Profiler Level 2 E3 S147]
        L2  shuffle     0.000000 | core sample  0.000000 | id remap        0.000000
        L2  graph copy  0.000000 | id copy      0.000000 | cache feat copy 0.004857
        L2  last layer sample time 0.000000 | size 0.000000
    [Step(average) Profiler Level 3 E3 S147]
        L3  khop sample coo  0.000000 | khop sort coo      0.000000 | khop count edge     0.000000 | khop compact edge 0.000000
        L3  walk sample coo  0.000000 | walk topk total    0.000000 | walk topk step1     0.000000 | walk topk step2   0.000000
        L3  walk topk step3  0.000000 | walk topk step4    0.000000 | walk topk step5     0.000000
        L3  walk topk step6  0.000000 | walk topk step7    0.000000
        L3  remap unique     0.000000 | remap populate     0.000000 | remap mapnode       0.000000 | remap mapedge     0.000000
        L3  cache get_index  0.000804 | cache copy_index   0.000000 | cache extract_miss  0.000000
        L3  cache copy_miss  0.000000 | cache combine_miss 0.000000 | cache combine cache 0.004021 | cache combine remote 0.000000
        L3  label extract  0.000000
    [Profiler Level Percentiles E3 S147]
        p50.00_tail_logl2featcopy=0.004987
        p90.00_tail_logl2featcopy=0.005176
        p95.00_tail_logl2featcopy=0.005199
        p99.00_tail_logl2featcopy=0.006967
        p99.90_tail_logl2featcopy=0.008029
[CUDA] cuda: usage: 11.50 GB
Rank=2, Graph loaded.
!!!!Train_dataloader(with 37 items) enumerate latency: 1.485898733139038
!!!!Train_data_list(with 37 items) enumerate latency: 7.62939453125e-06, transfer latency: 1.4420826435089111
presamping
presamping takes 2.1220107078552246
config:eval_tsp="2023-04-14 19:52:23"
config:num_worker=4
config:num_intra_size=4
config:root_dir=/nvme/songxiaoniu/graph-learning/wholegraph
config:graph_name=ogbn-papers100M
config:epochs=4
config:batchsize=8000
config:skip_epoch=2
config:local_step=250
config:presc_epoch=2
config:neighbors=10,25
config:hiddensize=256
config:num_layer=2
config:model=sage
config:framework=dgl
config:dataloaderworkers=0
config:dropout=0.5
config:lr=0.003
config:use_nccl=False
config:use_amp=True
config:use_collcache=True
config:cache_percentage=0.08
config:cache_policy=coll_cache_asymm_link
config:omp_thread_num=40
config:unsupervised=False
config:classnum=172
config:global_barrier=<multiprocessing.synchronize.Barrier object at 0x7f34eb4b9430>
config:worker_id=0
creating_intra_node_communicator root=0, local_size=4, world_size=4
Rank=0, Graph loaded.
!!!!Train_dataloader(with 37 items) enumerate latency: 1.771627426147461
!!!!Train_data_list(with 37 items) enumerate latency: 6.67572021484375e-06, transfer latency: 1.7285428047180176
epoch=4 total_steps=148
presamping
presamping takes 2.243842840194702
start training...
[Epoch 0], time=1.788945198059082, loss=5.043884754180908
[Epoch 1], time=0.655268669128418, loss=4.948568344116211
[Epoch 2], time=0.6618509292602539, loss=4.863974094390869
[Epoch 3], time=0.6814734935760498, loss=4.789145469665527
|===========================================================================|
|                  PyTorch CUDA memory summary, device ID 0                 |
|---------------------------------------------------------------------------|
|            CUDA OOMs: 0            |        cudaMalloc retries: 0         |
|===========================================================================|
|        Metric         | Cur Usage  | Peak Usage | Tot Alloc  | Tot Freed  |
|---------------------------------------------------------------------------|
| Allocated memory      |   74654 KB |  396678 KB |  209252 MB |  209179 MB |
|       from large pool |   68095 KB |  390469 KB |  206761 MB |  206695 MB |
|       from small pool |    6559 KB |    9188 KB |    2490 MB |    2484 MB |
|---------------------------------------------------------------------------|
| Active memory         |   74654 KB |  396678 KB |  209252 MB |  209179 MB |
|       from large pool |   68095 KB |  390469 KB |  206761 MB |  206695 MB |
|       from small pool |    6559 KB |    9188 KB |    2490 MB |    2484 MB |
|---------------------------------------------------------------------------|
| GPU reserved memory   |     854 MB |     854 MB |     854 MB |       0 B  |
|       from large pool |     842 MB |     842 MB |     842 MB |       0 B  |
|       from small pool |      12 MB |      12 MB |      12 MB |       0 B  |
|---------------------------------------------------------------------------|
| Non-releasable memory |   89185 KB |  348778 KB |  168743 MB |  168656 MB |
|       from large pool |   85504 KB |  344835 KB |  166044 MB |  165960 MB |
|       from small pool |    3681 KB |    6920 KB |    2698 MB |    2695 MB |
|---------------------------------------------------------------------------|
| Allocations           |      55    |      69    |   23524    |   23469    |
|       from large pool |      11    |      22    |    8538    |    8527    |
|       from small pool |      44    |      49    |   14986    |   14942    |
|---------------------------------------------------------------------------|
| Active allocs         |      55    |      69    |   23524    |   23469    |
|       from large pool |      11    |      22    |    8538    |    8527    |
|       from small pool |      44    |      49    |   14986    |   14942    |
|---------------------------------------------------------------------------|
| GPU reserved segments |      20    |      20    |      20    |       0    |
|       from large pool |      14    |      14    |      14    |       0    |
|       from small pool |       6    |       6    |       6    |       0    |
|---------------------------------------------------------------------------|
| Non-releasable allocs |      21    |      36    |    9629    |    9608    |
|       from large pool |       6    |      15    |    5369    |    5363    |
|       from small pool |      15    |      24    |    4260    |    4245    |
|---------------------------------------------------------------------------|
| Oversize allocations  |       0    |       0    |       0    |       0    |
|---------------------------------------------------------------------------|
| Oversize GPU segments |       0    |       0    |       0    |       0    |
|===========================================================================|

[TRAIN_TIME] train time is 3.803783 seconds
[EPOCH_TIME] 0.950946 seconds, maybe large due to not enough epoch skipped.
[EPOCH_TIME] 0.671792 seconds
Rank=3, Graph loaded.
!!!!Train_dataloader(with 37 items) enumerate latency: 1.4745473861694336
!!!!Train_data_list(with 37 items) enumerate latency: 7.3909759521484375e-06, transfer latency: 1.4706244468688965
presamping
presamping takes 2.0674667358398438
Rank=1, Graph loaded.
!!!!Train_dataloader(with 37 items) enumerate latency: 1.469085931777954
!!!!Train_data_list(with 37 items) enumerate latency: 7.62939453125e-06, transfer latency: 1.431147813796997
presamping
presamping takes 1.5778722763061523

